NAME /Users/henri/Research/solvers/instances/idol-instances/robust/collection/spp_dkp_Lefebvre_et_al_2026/shortest_path_3_10/uncertainty_sets/discrete_knapsack
ROWS
 N  OBJ
 L  primal_lower
COLUMNS
    MARKER    'MARKER'                 'INTORG'
    y[0,1]     OBJ        0
    y[0,1]     primal_lower -11.66
    y[0,2]     OBJ        0
    y[0,2]     primal_lower -0.37
    y[1,0]     OBJ        0
    y[1,0]     primal_lower -2.99
    y[1,2]     OBJ        0
    y[1,2]     primal_lower -8.76
    y[2,0]     OBJ        0
    y[2,0]     primal_lower -1.39
    y[2,1]     OBJ        0
    y[2,1]     primal_lower -8.79
    u[0,1]     OBJ        0
    u[0,1]     primal_lower 25
    u[0,2]     OBJ        0
    u[0,2]     primal_lower 39
    u[1,0]     OBJ        0
    u[1,0]     primal_lower 77
    u[1,2]     OBJ        0
    u[1,2]     primal_lower 60
    u[2,0]     OBJ        0
    u[2,0]     primal_lower 15
    u[2,1]     OBJ        0
    u[2,1]     primal_lower 85
    MARKER    'MARKER'                 'INTEND'
RHS
    RHS       primal_lower 85
BOUNDS
 LI BND       y[0,1]     0
 UI BND       y[0,1]     1
 LI BND       y[0,2]     0
 UI BND       y[0,2]     1
 LI BND       y[1,0]     0
 UI BND       y[1,0]     1
 LI BND       y[1,2]     0
 UI BND       y[1,2]     1
 LI BND       y[2,0]     0
 UI BND       y[2,0]     1
 LI BND       y[2,1]     0
 UI BND       y[2,1]     1
 LI BND       u[0,1]     0
 UI BND       u[0,1]     1
 LI BND       u[0,2]     0
 UI BND       u[0,2]     1
 LI BND       u[1,0]     0
 UI BND       u[1,0]     1
 LI BND       u[1,2]     0
 UI BND       u[1,2]     1
 LI BND       u[2,0]     0
 UI BND       u[2,0]     1
 LI BND       u[2,1]     0
 UI BND       u[2,1]     1
ENDATA
